############################## T =  5
Academic license - for non-commercial use only
Changed value of parameter lazyConstraints to 1
   Prev: 0  Min: 0  Max: 1  Default: 0
Optimize a model with 2869 rows, 85 columns and 10304 nonzeros
Model has 528 quadratic objective terms
Variable types: 0 continuous, 85 integer (85 binary)
Coefficient statistics:
  Matrix range     [1e+00, 1e+00]
  Objective range  [0e+00, 0e+00]
  QObjective range [4e+01, 2e+04]
  Bounds range     [1e+00, 1e+00]
  RHS range        [1e+00, 2e+00]
Presolve removed 358 rows and 10 columns
Presolve time: 0.01s
Presolved: 3039 rows, 603 columns, 9998 nonzeros
Variable types: 0 continuous, 603 integer (603 binary)

Root relaxation: objective 0.000000e+00, 17 iterations, 0.00 seconds

    Nodes    |    Current Node    |     Objective Bounds      |     Work
 Expl Unexpl |  Obj  Depth IntInf | Incumbent    BestBd   Gap | It/Node Time

     0     0    0.00000    0   10          -    0.00000      -     -    0s
H    0     0                    22101.000000    0.00000   100%     -    0s
     0     0    0.00000    0   10 22101.0000    0.00000   100%     -    0s
     0     0    0.00000    0   10 22101.0000    0.00000   100%     -    0s
     0     0    0.00000    0   10 22101.0000    0.00000   100%     -    0s
     0     0    0.00000    0   12 22101.0000    0.00000   100%     -    0s
     0     0    0.00000    0   13 22101.0000    0.00000   100%     -    0s
     0     0    0.00000    0   10 22101.0000    0.00000   100%     -    0s
     0     0    0.00000    0   12 22101.0000    0.00000   100%     -    0s
     0     0    0.00000    0   10 22101.0000    0.00000   100%     -    0s
     0     0    0.00000    0   10 22101.0000    0.00000   100%     -    0s
     0     2    0.00000    0   10 22101.0000    0.00000   100%     -    0s
H  146   110                    15374.000000  929.00000  94.0%   7.4    0s
H  161   117                    15126.000000  968.18182  93.6%   7.4    0s
H  188   135                    14543.000000  968.18182  93.3%   7.7    0s
*  272   152              17    12851.000000 1120.54545  91.3%   7.3    0s
*  290   152              18    12807.000000 1139.70000  91.1%   7.2    0s
*  301   135              15    10551.000000 1139.70000  89.2%   7.3    0s
H  486   215                    10540.000000 1168.70000  88.9%   7.1    0s
*  618   260              22    10063.000000 1289.66667  87.2%   6.8    0s
* 2889   400              35    10062.000000 2634.12500  73.8%   8.3    3s
  4503   399 8905.20000   26    8 10062.0000 4652.00000  53.8%   8.3    5s

Cutting planes:
  Gomory: 3
  Flow cover: 4
  Zero half: 6

Explored 6754 nodes (52326 simplex iterations) in 5.99 seconds
Thread count was 4 (of 4 available processors)

Solution count 10: 10062 10063 10540 ... 22101

Optimal solution found (tolerance 1.00e-04)
Best objective 1.006200000000e+04, best bound 1.006200000000e+04, gap 0.0000%

Optimal cost: 10062
print out solution in ascending timestep
timestep  0 :  93367
timestep  1 :  94511
timestep  2 :  92748
timestep  3 :  92054
timestep  4 :  41487
{(0, 0): 0.0, (0, 1): -0.0, (0, 2): 1.0, (0, 3): 1.0, (0, 4): 1.0, (1, 0): 0.0, (1, 1): 0.0, (1, 2): 0.0, (1, 3): -0.0, (1, 4): 1.0, (2, 0): 0.0, (2, 1): 0.0, (2, 2): 0.0, (2, 3): 1.0, (2, 4): 1.0, (3, 0): 0.0, (3, 1): -0.0, (3, 2): -0.0, (3, 3): -0.0, (3, 4): 1.0, (4, 0): 0.0, (4, 1): 1.0, (4, 2): 1.0, (4, 3): 1.0, (4, 4): 1.0}
SOLVED AT T =  5
